103 6
25 23 23 23 23 23
1 0 0 0 0 0 0 3 2 3 4
6 8 5 1 2 1 8 4 5 6 7 8
2 6 10 10 8 4 7 3 103 7 8
1 5 3 4 9 2 2 4 5 6 7 8
9 7 1 2 5 5 1 4 9 10 11 12
6 9 1 3 1 1 4 3 9 11 12
1 8 10 7 3 3 2 2 10 11
1 3 3 5 3 5 6 3 9 10 11
1 10 9 10 8 7 5 3 14 15 16
2 9 8 3 6 7 10 3 14 15 16
1 5 6 8 2 4 3 2 15 16
5 8 9 1 5 9 8 3 13 15 16
6 1 3 6 5 10 9 4 17 18 19 20
1 4 10 10 10 3 10 3 17 18 19
2 7 7 7 2 5 1 4 17 18 19 20
1 9 3 10 5 2 8 3 17 18 19
1 7 3 9 8 10 7 4 21 22 23 24
7 6 3 3 6 5 3 3 21 22 23
1 8 6 10 2 9 2 4 21 22 23 24
5 7 1 10 2 2 2 2 21 23
1 1 8 10 8 9 8 4 25 26 27 28
6 4 8 6 10 3 1 3 25 27 28
10 4 7 1 5 2 1 4 25 26 27 28
1 10 8 5 6 9 8 4 25 26 27 28
9 3 5 7 8 4 4 4 29 30 31 32
2 2 3 5 1 4 6 4 29 30 31 32
1 8 9 2 4 10 2 2 29 32
1 10 9 10 9 7 4 3 29 30 32
9 9 6 7 8 9 4 3 34 35 36
1 7 7 10 1 1 9 4 33 34 35 36
1 7 10 7 3 8 8 2 34 35
1 5 8 7 4 9 3 3 33 34 36
4 5 5 2 10 7 10 4 37 38 39 40
5 8 6 7 10 7 2 4 37 38 39 40
2 1 9 2 10 8 6 3 37 38 39
1 6 9 10 9 6 1 3 37 38 40
1 5 1 7 2 7 5 3 41 42 43
7 9 3 1 6 4 3 3 41 43 44
1 8 4 1 8 2 7 2 41 44
1 1 4 1 4 2 6 2 41 44
1 7 8 1 4 3 4 3 45 47 48
1 2 5 1 4 9 8 4 45 46 47 48
1 8 6 6 9 8 7 3 45 46 47
5 10 2 2 7 3 3 4 45 46 47 48
2 8 5 3 10 1 7 4 49 50 51 52
7 9 4 8 3 7 5 4 49 50 51 52
6 9 5 8 2 2 9 2 50 51
2 8 1 4 7 5 8 3 50 51 52
6 9 2 6 6 4 6 3 53 55 56
10 3 5 3 5 4 4 4 53 54 55 56
6 6 6 2 9 4 7 3 53 54 56
1 4 6 3 2 7 4 3 53 54 56
1 6 7 4 9 9 9 3 58 59 60
1 3 1 6 2 8 5 4 57 58 59 60
5 8 7 1 5 5 1 4 57 58 59 60
1 1 8 10 8 6 8 4 57 58 59 60
10 9 10 6 7 9 10 4 61 62 63 64
5 5 9 2 7 7 3 3 61 62 63
3 8 9 10 2 4 8 3 62 63 64
1 6 5 10 5 6 5 3 62 63 64
7 5 3 10 3 9 8 4 65 66 67 68
2 3 3 6 8 7 9 3 65 67 68
3 3 9 9 7 10 7 4 65 66 67 68
1 8 8 8 6 4 10 4 65 66 67 68
4 8 7 8 5 6 2 2 69 72
1 3 3 2 3 8 10 3 69 70 72
1 10 1 9 10 3 9 3 69 71 72
1 2 8 3 10 7 1 3 69 70 72
8 1 3 2 5 7 4 3 73 74 76
1 6 7 4 1 7 7 4 73 74 75 76
3 4 2 4 9 8 8 4 73 74 75 76
3 4 5 1 9 10 7 4 73 74 75 76
3 7 6 7 3 8 1 3 77 78 80
1 8 8 9 3 2 7 3 77 78 80
1 3 1 8 10 2 1 3 78 79 80
9 3 9 5 4 5 8 4 77 78 79 80
1 8 6 7 9 3 4 4 81 82 83 84
1 4 8 5 3 1 8 3 82 83 84
1 8 1 2 10 7 9 3 81 82 84
7 4 9 8 7 3 8 4 81 82 83 84
1 10 8 1 10 9 9 3 85 86 88
1 1 8 5 3 10 5 2 86 88
6 5 8 9 9 10 1 1 88
3 2 1 3 5 1 3 4 85 86 87 88
1 10 6 5 3 2 8 4 89 90 91 92
2 7 4 8 1 5 4 4 89 90 91 92
7 8 3 9 1 6 5 4 89 90 91 92
2 4 1 2 7 7 10 2 89 92
9 10 3 10 1 8 10 3 93 94 96
5 8 5 5 3 3 3 4 93 94 95 96
4 9 1 4 7 9 7 4 93 94 95 96
1 1 9 4 6 8 2 4 93 94 95 96
9 8 4 3 7 5 2 4 97 98 99 100
4 8 6 10 7 8 4 3 97 98 99
1 5 7 7 8 10 5 3 98 99 100
1 8 7 3 9 1 6 2 98 100
1 5 4 6 7 3 10 1 101
1 9 1 8 4 3 9 1 101
9 1 8 4 4 2 3 1 102
3 7 7 9 1 4 9 1 101
1 4 7 9 6 9 9 1 103
3 8 6 1 5 9 2 1 103
0 0 0 0 0 0 0 0
